Minimize
 obj: 0 X_0_1
Subject To
 out_0:
  + 1 X_0_1 + 1 X_0_2 + 1 X_0_3 + 1 X_0_4 + 1 X_0_5 + 1 X_0_6 + 1 X_0_7 + 1 X_0_8
  + 1 X_0_9 + 1 X_0_10 + 1 X_0_11 + 1 X_0_12 + 1 X_0_13 + 1 X_0_14
  = 1
 in_0:
  + 1 X_1_0 + 1 X_2_0 + 1 X_3_0 + 1 X_4_0 + 1 X_5_0 + 1 X_6_0 + 1 X_7_0 + 1 X_8_0
  + 1 X_9_0 + 1 X_10_0 + 1 X_11_0 + 1 X_12_0 + 1 X_13_0 + 1 X_14_0
  = 1
 out_1:
  + 1 X_1_0 + 1 X_1_2 + 1 X_1_3 + 1 X_1_4 + 1 X_1_5 + 1 X_1_6 + 1 X_1_7 + 1 X_1_8
  + 1 X_1_9 + 1 X_1_10 + 1 X_1_11 + 1 X_1_12 + 1 X_1_13 + 1 X_1_14
  = 1
 in_1:
  + 1 X_0_1 + 1 X_2_1 + 1 X_3_1 + 1 X_4_1 + 1 X_5_1 + 1 X_6_1 + 1 X_7_1 + 1 X_8_1
  + 1 X_9_1 + 1 X_10_1 + 1 X_11_1 + 1 X_12_1 + 1 X_13_1 + 1 X_14_1
  = 1
 out_2:
  + 1 X_2_0 + 1 X_2_1 + 1 X_2_3 + 1 X_2_4 + 1 X_2_5 + 1 X_2_6 + 1 X_2_7 + 1 X_2_8
  + 1 X_2_9 + 1 X_2_10 + 1 X_2_11 + 1 X_2_12 + 1 X_2_13 + 1 X_2_14
  = 1
 in_2:
  + 1 X_0_2 + 1 X_1_2 + 1 X_3_2 + 1 X_4_2 + 1 X_5_2 + 1 X_6_2 + 1 X_7_2 + 1 X_8_2
  + 1 X_9_2 + 1 X_10_2 + 1 X_11_2 + 1 X_12_2 + 1 X_13_2 + 1 X_14_2
  = 1
 out_3:
  + 1 X_3_0 + 1 X_3_1 + 1 X_3_2 + 1 X_3_4 + 1 X_3_5 + 1 X_3_6 + 1 X_3_7 + 1 X_3_8
  + 1 X_3_9 + 1 X_3_10 + 1 X_3_11 + 1 X_3_12 + 1 X_3_13 + 1 X_3_14
  = 1
 in_3:
  + 1 X_0_3 + 1 X_1_3 + 1 X_2_3 + 1 X_4_3 + 1 X_5_3 + 1 X_6_3 + 1 X_7_3 + 1 X_8_3
  + 1 X_9_3 + 1 X_10_3 + 1 X_11_3 + 1 X_12_3 + 1 X_13_3 + 1 X_14_3
  = 1
 out_4:
  + 1 X_4_0 + 1 X_4_1 + 1 X_4_2 + 1 X_4_3 + 1 X_4_5 + 1 X_4_6 + 1 X_4_7 + 1 X_4_8
  + 1 X_4_9 + 1 X_4_10 + 1 X_4_11 + 1 X_4_12 + 1 X_4_13 + 1 X_4_14
  = 1
 in_4:
  + 1 X_0_4 + 1 X_1_4 + 1 X_2_4 + 1 X_3_4 + 1 X_5_4 + 1 X_6_4 + 1 X_7_4 + 1 X_8_4
  + 1 X_9_4 + 1 X_10_4 + 1 X_11_4 + 1 X_12_4 + 1 X_13_4 + 1 X_14_4
  = 1
 out_5:
  + 1 X_5_0 + 1 X_5_1 + 1 X_5_2 + 1 X_5_3 + 1 X_5_4 + 1 X_5_6 + 1 X_5_7 + 1 X_5_8
  + 1 X_5_9 + 1 X_5_10 + 1 X_5_11 + 1 X_5_12 + 1 X_5_13 + 1 X_5_14
  = 1
 in_5:
  + 1 X_0_5 + 1 X_1_5 + 1 X_2_5 + 1 X_3_5 + 1 X_4_5 + 1 X_6_5 + 1 X_7_5 + 1 X_8_5
  + 1 X_9_5 + 1 X_10_5 + 1 X_11_5 + 1 X_12_5 + 1 X_13_5 + 1 X_14_5
  = 1
 out_6:
  + 1 X_6_0 + 1 X_6_1 + 1 X_6_2 + 1 X_6_3 + 1 X_6_4 + 1 X_6_5 + 1 X_6_7 + 1 X_6_8
  + 1 X_6_9 + 1 X_6_10 + 1 X_6_11 + 1 X_6_12 + 1 X_6_13 + 1 X_6_14
  = 1
 in_6:
  + 1 X_0_6 + 1 X_1_6 + 1 X_2_6 + 1 X_3_6 + 1 X_4_6 + 1 X_5_6 + 1 X_7_6 + 1 X_8_6
  + 1 X_9_6 + 1 X_10_6 + 1 X_11_6 + 1 X_12_6 + 1 X_13_6 + 1 X_14_6
  = 1
 out_7:
  + 1 X_7_0 + 1 X_7_1 + 1 X_7_2 + 1 X_7_3 + 1 X_7_4 + 1 X_7_5 + 1 X_7_6 + 1 X_7_8
  + 1 X_7_9 + 1 X_7_10 + 1 X_7_11 + 1 X_7_12 + 1 X_7_13 + 1 X_7_14
  = 1
 in_7:
  + 1 X_0_7 + 1 X_1_7 + 1 X_2_7 + 1 X_3_7 + 1 X_4_7 + 1 X_5_7 + 1 X_6_7 + 1 X_8_7
  + 1 X_9_7 + 1 X_10_7 + 1 X_11_7 + 1 X_12_7 + 1 X_13_7 + 1 X_14_7
  = 1
 out_8:
  + 1 X_8_0 + 1 X_8_1 + 1 X_8_2 + 1 X_8_3 + 1 X_8_4 + 1 X_8_5 + 1 X_8_6 + 1 X_8_7
  + 1 X_8_9 + 1 X_8_10 + 1 X_8_11 + 1 X_8_12 + 1 X_8_13 + 1 X_8_14
  = 1
 in_8:
  + 1 X_0_8 + 1 X_1_8 + 1 X_2_8 + 1 X_3_8 + 1 X_4_8 + 1 X_5_8 + 1 X_6_8 + 1 X_7_8
  + 1 X_9_8 + 1 X_10_8 + 1 X_11_8 + 1 X_12_8 + 1 X_13_8 + 1 X_14_8
  = 1
 out_9:
  + 1 X_9_0 + 1 X_9_1 + 1 X_9_2 + 1 X_9_3 + 1 X_9_4 + 1 X_9_5 + 1 X_9_6 + 1 X_9_7
  + 1 X_9_8 + 1 X_9_10 + 1 X_9_11 + 1 X_9_12 + 1 X_9_13 + 1 X_9_14
  = 1
 in_9:
  + 1 X_0_9 + 1 X_1_9 + 1 X_2_9 + 1 X_3_9 + 1 X_4_9 + 1 X_5_9 + 1 X_6_9 + 1 X_7_9
  + 1 X_8_9 + 1 X_10_9 + 1 X_11_9 + 1 X_12_9 + 1 X_13_9 + 1 X_14_9
  = 1
 out_10:
  + 1 X_10_0 + 1 X_10_1 + 1 X_10_2 + 1 X_10_3 + 1 X_10_4 + 1 X_10_5 + 1 X_10_6 + 1 X_10_7
  + 1 X_10_8 + 1 X_10_9 + 1 X_10_11 + 1 X_10_12 + 1 X_10_13 + 1 X_10_14
  = 1
 in_10:
  + 1 X_0_10 + 1 X_1_10 + 1 X_2_10 + 1 X_3_10 + 1 X_4_10 + 1 X_5_10 + 1 X_6_10 + 1 X_7_10
  + 1 X_8_10 + 1 X_9_10 + 1 X_11_10 + 1 X_12_10 + 1 X_13_10 + 1 X_14_10
  = 1
 out_11:
  + 1 X_11_0 + 1 X_11_1 + 1 X_11_2 + 1 X_11_3 + 1 X_11_4 + 1 X_11_5 + 1 X_11_6 + 1 X_11_7
  + 1 X_11_8 + 1 X_11_9 + 1 X_11_10 + 1 X_11_12 + 1 X_11_13 + 1 X_11_14
  = 1
 in_11:
  + 1 X_0_11 + 1 X_1_11 + 1 X_2_11 + 1 X_3_11 + 1 X_4_11 + 1 X_5_11 + 1 X_6_11 + 1 X_7_11
  + 1 X_8_11 + 1 X_9_11 + 1 X_10_11 + 1 X_12_11 + 1 X_13_11 + 1 X_14_11
  = 1
 out_12:
  + 1 X_12_0 + 1 X_12_1 + 1 X_12_2 + 1 X_12_3 + 1 X_12_4 + 1 X_12_5 + 1 X_12_6 + 1 X_12_7
  + 1 X_12_8 + 1 X_12_9 + 1 X_12_10 + 1 X_12_11 + 1 X_12_13 + 1 X_12_14
  = 1
 in_12:
  + 1 X_0_12 + 1 X_1_12 + 1 X_2_12 + 1 X_3_12 + 1 X_4_12 + 1 X_5_12 + 1 X_6_12 + 1 X_7_12
  + 1 X_8_12 + 1 X_9_12 + 1 X_10_12 + 1 X_11_12 + 1 X_13_12 + 1 X_14_12
  = 1
 out_13:
  + 1 X_13_0 + 1 X_13_1 + 1 X_13_2 + 1 X_13_3 + 1 X_13_4 + 1 X_13_5 + 1 X_13_6 + 1 X_13_7
  + 1 X_13_8 + 1 X_13_9 + 1 X_13_10 + 1 X_13_11 + 1 X_13_12 + 1 X_13_14
  = 1
 in_13:
  + 1 X_0_13 + 1 X_1_13 + 1 X_2_13 + 1 X_3_13 + 1 X_4_13 + 1 X_5_13 + 1 X_6_13 + 1 X_7_13
  + 1 X_8_13 + 1 X_9_13 + 1 X_10_13 + 1 X_11_13 + 1 X_12_13 + 1 X_14_13
  = 1
 out_14:
  + 1 X_14_0 + 1 X_14_1 + 1 X_14_2 + 1 X_14_3 + 1 X_14_4 + 1 X_14_5 + 1 X_14_6 + 1 X_14_7
  + 1 X_14_8 + 1 X_14_9 + 1 X_14_10 + 1 X_14_11 + 1 X_14_12 + 1 X_14_13
  = 1
 in_14:
  + 1 X_0_14 + 1 X_1_14 + 1 X_2_14 + 1 X_3_14 + 1 X_4_14 + 1 X_5_14 + 1 X_6_14 + 1 X_7_14
  + 1 X_8_14 + 1 X_9_14 + 1 X_10_14 + 1 X_11_14 + 1 X_12_14 + 1 X_13_14
  = 1
 mtz_1_2:
  + 1 U1 - 1 U2 + 14 X_1_2
  <= 13
 mtz_1_3:
  + 1 U1 - 1 U3 + 14 X_1_3
  <= 13
 mtz_1_4:
  + 1 U1 - 1 U4 + 14 X_1_4
  <= 13
 mtz_1_5:
  + 1 U1 - 1 U5 + 14 X_1_5
  <= 13
 mtz_1_6:
  + 1 U1 - 1 U6 + 14 X_1_6
  <= 13
 mtz_1_7:
  + 1 U1 - 1 U7 + 14 X_1_7
  <= 13
 mtz_1_8:
  + 1 U1 - 1 U8 + 14 X_1_8
  <= 13
 mtz_1_9:
  + 1 U1 - 1 U9 + 14 X_1_9
  <= 13
 mtz_1_10:
  + 1 U1 - 1 U10 + 14 X_1_10
  <= 13
 mtz_1_11:
  + 1 U1 - 1 U11 + 14 X_1_11
  <= 13
 mtz_1_12:
  + 1 U1 - 1 U12 + 14 X_1_12
  <= 13
 mtz_1_13:
  + 1 U1 - 1 U13 + 14 X_1_13
  <= 13
 mtz_1_14:
  + 1 U1 - 1 U14 + 14 X_1_14
  <= 13
 mtz_2_1:
  + 1 U2 - 1 U1 + 14 X_2_1
  <= 13
 mtz_2_3:
  + 1 U2 - 1 U3 + 14 X_2_3
  <= 13
 mtz_2_4:
  + 1 U2 - 1 U4 + 14 X_2_4
  <= 13
 mtz_2_5:
  + 1 U2 - 1 U5 + 14 X_2_5
  <= 13
 mtz_2_6:
  + 1 U2 - 1 U6 + 14 X_2_6
  <= 13
 mtz_2_7:
  + 1 U2 - 1 U7 + 14 X_2_7
  <= 13
 mtz_2_8:
  + 1 U2 - 1 U8 + 14 X_2_8
  <= 13
 mtz_2_9:
  + 1 U2 - 1 U9 + 14 X_2_9
  <= 13
 mtz_2_10:
  + 1 U2 - 1 U10 + 14 X_2_10
  <= 13
 mtz_2_11:
  + 1 U2 - 1 U11 + 14 X_2_11
  <= 13
 mtz_2_12:
  + 1 U2 - 1 U12 + 14 X_2_12
  <= 13
 mtz_2_13:
  + 1 U2 - 1 U13 + 14 X_2_13
  <= 13
 mtz_2_14:
  + 1 U2 - 1 U14 + 14 X_2_14
  <= 13
 mtz_3_1:
  + 1 U3 - 1 U1 + 14 X_3_1
  <= 13
 mtz_3_2:
  + 1 U3 - 1 U2 + 14 X_3_2
  <= 13
 mtz_3_4:
  + 1 U3 - 1 U4 + 14 X_3_4
  <= 13
 mtz_3_5:
  + 1 U3 - 1 U5 + 14 X_3_5
  <= 13
 mtz_3_6:
  + 1 U3 - 1 U6 + 14 X_3_6
  <= 13
 mtz_3_7:
  + 1 U3 - 1 U7 + 14 X_3_7
  <= 13
 mtz_3_8:
  + 1 U3 - 1 U8 + 14 X_3_8
  <= 13
 mtz_3_9:
  + 1 U3 - 1 U9 + 14 X_3_9
  <= 13
 mtz_3_10:
  + 1 U3 - 1 U10 + 14 X_3_10
  <= 13
 mtz_3_11:
  + 1 U3 - 1 U11 + 14 X_3_11
  <= 13
 mtz_3_12:
  + 1 U3 - 1 U12 + 14 X_3_12
  <= 13
 mtz_3_13:
  + 1 U3 - 1 U13 + 14 X_3_13
  <= 13
 mtz_3_14:
  + 1 U3 - 1 U14 + 14 X_3_14
  <= 13
 mtz_4_1:
  + 1 U4 - 1 U1 + 14 X_4_1
  <= 13
 mtz_4_2:
  + 1 U4 - 1 U2 + 14 X_4_2
  <= 13
 mtz_4_3:
  + 1 U4 - 1 U3 + 14 X_4_3
  <= 13
 mtz_4_5:
  + 1 U4 - 1 U5 + 14 X_4_5
  <= 13
 mtz_4_6:
  + 1 U4 - 1 U6 + 14 X_4_6
  <= 13
 mtz_4_7:
  + 1 U4 - 1 U7 + 14 X_4_7
  <= 13
 mtz_4_8:
  + 1 U4 - 1 U8 + 14 X_4_8
  <= 13
 mtz_4_9:
  + 1 U4 - 1 U9 + 14 X_4_9
  <= 13
 mtz_4_10:
  + 1 U4 - 1 U10 + 14 X_4_10
  <= 13
 mtz_4_11:
  + 1 U4 - 1 U11 + 14 X_4_11
  <= 13
 mtz_4_12:
  + 1 U4 - 1 U12 + 14 X_4_12
  <= 13
 mtz_4_13:
  + 1 U4 - 1 U13 + 14 X_4_13
  <= 13
 mtz_4_14:
  + 1 U4 - 1 U14 + 14 X_4_14
  <= 13
 mtz_5_1:
  + 1 U5 - 1 U1 + 14 X_5_1
  <= 13
 mtz_5_2:
  + 1 U5 - 1 U2 + 14 X_5_2
  <= 13
 mtz_5_3:
  + 1 U5 - 1 U3 + 14 X_5_3
  <= 13
 mtz_5_4:
  + 1 U5 - 1 U4 + 14 X_5_4
  <= 13
 mtz_5_6:
  + 1 U5 - 1 U6 + 14 X_5_6
  <= 13
 mtz_5_7:
  + 1 U5 - 1 U7 + 14 X_5_7
  <= 13
 mtz_5_8:
  + 1 U5 - 1 U8 + 14 X_5_8
  <= 13
 mtz_5_9:
  + 1 U5 - 1 U9 + 14 X_5_9
  <= 13
 mtz_5_10:
  + 1 U5 - 1 U10 + 14 X_5_10
  <= 13
 mtz_5_11:
  + 1 U5 - 1 U11 + 14 X_5_11
  <= 13
 mtz_5_12:
  + 1 U5 - 1 U12 + 14 X_5_12
  <= 13
 mtz_5_13:
  + 1 U5 - 1 U13 + 14 X_5_13
  <= 13
 mtz_5_14:
  + 1 U5 - 1 U14 + 14 X_5_14
  <= 13
 mtz_6_1:
  + 1 U6 - 1 U1 + 14 X_6_1
  <= 13
 mtz_6_2:
  + 1 U6 - 1 U2 + 14 X_6_2
  <= 13
 mtz_6_3:
  + 1 U6 - 1 U3 + 14 X_6_3
  <= 13
 mtz_6_4:
  + 1 U6 - 1 U4 + 14 X_6_4
  <= 13
 mtz_6_5:
  + 1 U6 - 1 U5 + 14 X_6_5
  <= 13
 mtz_6_7:
  + 1 U6 - 1 U7 + 14 X_6_7
  <= 13
 mtz_6_8:
  + 1 U6 - 1 U8 + 14 X_6_8
  <= 13
 mtz_6_9:
  + 1 U6 - 1 U9 + 14 X_6_9
  <= 13
 mtz_6_10:
  + 1 U6 - 1 U10 + 14 X_6_10
  <= 13
 mtz_6_11:
  + 1 U6 - 1 U11 + 14 X_6_11
  <= 13
 mtz_6_12:
  + 1 U6 - 1 U12 + 14 X_6_12
  <= 13
 mtz_6_13:
  + 1 U6 - 1 U13 + 14 X_6_13
  <= 13
 mtz_6_14:
  + 1 U6 - 1 U14 + 14 X_6_14
  <= 13
 mtz_7_1:
  + 1 U7 - 1 U1 + 14 X_7_1
  <= 13
 mtz_7_2:
  + 1 U7 - 1 U2 + 14 X_7_2
  <= 13
 mtz_7_3:
  + 1 U7 - 1 U3 + 14 X_7_3
  <= 13
 mtz_7_4:
  + 1 U7 - 1 U4 + 14 X_7_4
  <= 13
 mtz_7_5:
  + 1 U7 - 1 U5 + 14 X_7_5
  <= 13
 mtz_7_6:
  + 1 U7 - 1 U6 + 14 X_7_6
  <= 13
 mtz_7_8:
  + 1 U7 - 1 U8 + 14 X_7_8
  <= 13
 mtz_7_9:
  + 1 U7 - 1 U9 + 14 X_7_9
  <= 13
 mtz_7_10:
  + 1 U7 - 1 U10 + 14 X_7_10
  <= 13
 mtz_7_11:
  + 1 U7 - 1 U11 + 14 X_7_11
  <= 13
 mtz_7_12:
  + 1 U7 - 1 U12 + 14 X_7_12
  <= 13
 mtz_7_13:
  + 1 U7 - 1 U13 + 14 X_7_13
  <= 13
 mtz_7_14:
  + 1 U7 - 1 U14 + 14 X_7_14
  <= 13
 mtz_8_1:
  + 1 U8 - 1 U1 + 14 X_8_1
  <= 13
 mtz_8_2:
  + 1 U8 - 1 U2 + 14 X_8_2
  <= 13
 mtz_8_3:
  + 1 U8 - 1 U3 + 14 X_8_3
  <= 13
 mtz_8_4:
  + 1 U8 - 1 U4 + 14 X_8_4
  <= 13
 mtz_8_5:
  + 1 U8 - 1 U5 + 14 X_8_5
  <= 13
 mtz_8_6:
  + 1 U8 - 1 U6 + 14 X_8_6
  <= 13
 mtz_8_7:
  + 1 U8 - 1 U7 + 14 X_8_7
  <= 13
 mtz_8_9:
  + 1 U8 - 1 U9 + 14 X_8_9
  <= 13
 mtz_8_10:
  + 1 U8 - 1 U10 + 14 X_8_10
  <= 13
 mtz_8_11:
  + 1 U8 - 1 U11 + 14 X_8_11
  <= 13
 mtz_8_12:
  + 1 U8 - 1 U12 + 14 X_8_12
  <= 13
 mtz_8_13:
  + 1 U8 - 1 U13 + 14 X_8_13
  <= 13
 mtz_8_14:
  + 1 U8 - 1 U14 + 14 X_8_14
  <= 13
 mtz_9_1:
  + 1 U9 - 1 U1 + 14 X_9_1
  <= 13
 mtz_9_2:
  + 1 U9 - 1 U2 + 14 X_9_2
  <= 13
 mtz_9_3:
  + 1 U9 - 1 U3 + 14 X_9_3
  <= 13
 mtz_9_4:
  + 1 U9 - 1 U4 + 14 X_9_4
  <= 13
 mtz_9_5:
  + 1 U9 - 1 U5 + 14 X_9_5
  <= 13
 mtz_9_6:
  + 1 U9 - 1 U6 + 14 X_9_6
  <= 13
 mtz_9_7:
  + 1 U9 - 1 U7 + 14 X_9_7
  <= 13
 mtz_9_8:
  + 1 U9 - 1 U8 + 14 X_9_8
  <= 13
 mtz_9_10:
  + 1 U9 - 1 U10 + 14 X_9_10
  <= 13
 mtz_9_11:
  + 1 U9 - 1 U11 + 14 X_9_11
  <= 13
 mtz_9_12:
  + 1 U9 - 1 U12 + 14 X_9_12
  <= 13
 mtz_9_13:
  + 1 U9 - 1 U13 + 14 X_9_13
  <= 13
 mtz_9_14:
  + 1 U9 - 1 U14 + 14 X_9_14
  <= 13
 mtz_10_1:
  + 1 U10 - 1 U1 + 14 X_10_1
  <= 13
 mtz_10_2:
  + 1 U10 - 1 U2 + 14 X_10_2
  <= 13
 mtz_10_3:
  + 1 U10 - 1 U3 + 14 X_10_3
  <= 13
 mtz_10_4:
  + 1 U10 - 1 U4 + 14 X_10_4
  <= 13
 mtz_10_5:
  + 1 U10 - 1 U5 + 14 X_10_5
  <= 13
 mtz_10_6:
  + 1 U10 - 1 U6 + 14 X_10_6
  <= 13
 mtz_10_7:
  + 1 U10 - 1 U7 + 14 X_10_7
  <= 13
 mtz_10_8:
  + 1 U10 - 1 U8 + 14 X_10_8
  <= 13
 mtz_10_9:
  + 1 U10 - 1 U9 + 14 X_10_9
  <= 13
 mtz_10_11:
  + 1 U10 - 1 U11 + 14 X_10_11
  <= 13
 mtz_10_12:
  + 1 U10 - 1 U12 + 14 X_10_12
  <= 13
 mtz_10_13:
  + 1 U10 - 1 U13 + 14 X_10_13
  <= 13
 mtz_10_14:
  + 1 U10 - 1 U14 + 14 X_10_14
  <= 13
 mtz_11_1:
  + 1 U11 - 1 U1 + 14 X_11_1
  <= 13
 mtz_11_2:
  + 1 U11 - 1 U2 + 14 X_11_2
  <= 13
 mtz_11_3:
  + 1 U11 - 1 U3 + 14 X_11_3
  <= 13
 mtz_11_4:
  + 1 U11 - 1 U4 + 14 X_11_4
  <= 13
 mtz_11_5:
  + 1 U11 - 1 U5 + 14 X_11_5
  <= 13
 mtz_11_6:
  + 1 U11 - 1 U6 + 14 X_11_6
  <= 13
 mtz_11_7:
  + 1 U11 - 1 U7 + 14 X_11_7
  <= 13
 mtz_11_8:
  + 1 U11 - 1 U8 + 14 X_11_8
  <= 13
 mtz_11_9:
  + 1 U11 - 1 U9 + 14 X_11_9
  <= 13
 mtz_11_10:
  + 1 U11 - 1 U10 + 14 X_11_10
  <= 13
 mtz_11_12:
  + 1 U11 - 1 U12 + 14 X_11_12
  <= 13
 mtz_11_13:
  + 1 U11 - 1 U13 + 14 X_11_13
  <= 13
 mtz_11_14:
  + 1 U11 - 1 U14 + 14 X_11_14
  <= 13
 mtz_12_1:
  + 1 U12 - 1 U1 + 14 X_12_1
  <= 13
 mtz_12_2:
  + 1 U12 - 1 U2 + 14 X_12_2
  <= 13
 mtz_12_3:
  + 1 U12 - 1 U3 + 14 X_12_3
  <= 13
 mtz_12_4:
  + 1 U12 - 1 U4 + 14 X_12_4
  <= 13
 mtz_12_5:
  + 1 U12 - 1 U5 + 14 X_12_5
  <= 13
 mtz_12_6:
  + 1 U12 - 1 U6 + 14 X_12_6
  <= 13
 mtz_12_7:
  + 1 U12 - 1 U7 + 14 X_12_7
  <= 13
 mtz_12_8:
  + 1 U12 - 1 U8 + 14 X_12_8
  <= 13
 mtz_12_9:
  + 1 U12 - 1 U9 + 14 X_12_9
  <= 13
 mtz_12_10:
  + 1 U12 - 1 U10 + 14 X_12_10
  <= 13
 mtz_12_11:
  + 1 U12 - 1 U11 + 14 X_12_11
  <= 13
 mtz_12_13:
  + 1 U12 - 1 U13 + 14 X_12_13
  <= 13
 mtz_12_14:
  + 1 U12 - 1 U14 + 14 X_12_14
  <= 13
 mtz_13_1:
  + 1 U13 - 1 U1 + 14 X_13_1
  <= 13
 mtz_13_2:
  + 1 U13 - 1 U2 + 14 X_13_2
  <= 13
 mtz_13_3:
  + 1 U13 - 1 U3 + 14 X_13_3
  <= 13
 mtz_13_4:
  + 1 U13 - 1 U4 + 14 X_13_4
  <= 13
 mtz_13_5:
  + 1 U13 - 1 U5 + 14 X_13_5
  <= 13
 mtz_13_6:
  + 1 U13 - 1 U6 + 14 X_13_6
  <= 13
 mtz_13_7:
  + 1 U13 - 1 U7 + 14 X_13_7
  <= 13
 mtz_13_8:
  + 1 U13 - 1 U8 + 14 X_13_8
  <= 13
 mtz_13_9:
  + 1 U13 - 1 U9 + 14 X_13_9
  <= 13
 mtz_13_10:
  + 1 U13 - 1 U10 + 14 X_13_10
  <= 13
 mtz_13_11:
  + 1 U13 - 1 U11 + 14 X_13_11
  <= 13
 mtz_13_12:
  + 1 U13 - 1 U12 + 14 X_13_12
  <= 13
 mtz_13_14:
  + 1 U13 - 1 U14 + 14 X_13_14
  <= 13
 mtz_14_1:
  + 1 U14 - 1 U1 + 14 X_14_1
  <= 13
 mtz_14_2:
  + 1 U14 - 1 U2 + 14 X_14_2
  <= 13
 mtz_14_3:
  + 1 U14 - 1 U3 + 14 X_14_3
  <= 13
 mtz_14_4:
  + 1 U14 - 1 U4 + 14 X_14_4
  <= 13
 mtz_14_5:
  + 1 U14 - 1 U5 + 14 X_14_5
  <= 13
 mtz_14_6:
  + 1 U14 - 1 U6 + 14 X_14_6
  <= 13
 mtz_14_7:
  + 1 U14 - 1 U7 + 14 X_14_7
  <= 13
 mtz_14_8:
  + 1 U14 - 1 U8 + 14 X_14_8
  <= 13
 mtz_14_9:
  + 1 U14 - 1 U9 + 14 X_14_9
  <= 13
 mtz_14_10:
  + 1 U14 - 1 U10 + 14 X_14_10
  <= 13
 mtz_14_11:
  + 1 U14 - 1 U11 + 14 X_14_11
  <= 13
 mtz_14_12:
  + 1 U14 - 1 U12 + 14 X_14_12
  <= 13
 mtz_14_13:
  + 1 U14 - 1 U13 + 14 X_14_13
  <= 13
 obj1:
  + 722 X_0_1 + 120 X_0_2 + 659 X_0_3 + 451 X_0_4 + 449 X_0_5 + 475 X_0_6 + 487 X_0_7 + 963 X_0_8
  + 425 X_0_9 + 310 X_0_10 + 1055 X_0_11 + 640 X_0_12 + 483 X_0_13 + 392 X_0_14 + 722 X_1_0 + 619 X_1_2
  + 723 X_1_3 + 292 X_1_4 + 331 X_1_5 + 536 X_1_6 + 977 X_1_7 + 636 X_1_8 + 799 X_1_9 + 656 X_1_10
  + 594 X_1_11 + 812 X_1_12 + 275 X_1_13 + 960 X_1_14 + 120 X_2_0 + 619 X_2_1 + 675 X_2_3 + 367 X_2_4
  + 379 X_2_5 + 463 X_2_6 + 580 X_2_7 + 930 X_2_8 + 486 X_2_9 + 341 X_2_10 + 1004 X_2_11 + 676 X_2_12
  + 402 X_2_13 + 496 X_2_14 + 659 X_3_0 + 723 X_3_1 + 675 X_3_2 + 521 X_3_4 + 458 X_3_5 + 234 X_3_6
  + 450 X_3_7 + 426 X_3_8 + 303 X_3_9 + 349 X_3_10 + 588 X_3_11 + 114 X_3_12 + 506 X_3_13 + 525 X_3_14
  + 451 X_4_0 + 292 X_4_1 + 367 X_4_2 + 521 X_4_3 + 63 X_4_5 + 295 X_4_6 + 693 X_4_7 + 618 X_4_8
  + 522 X_4_9 + 369 X_4_10 + 658 X_4_11 + 584 X_4_12 + 36 X_4_13 + 669 X_4_14 + 449 X_5_0 + 331 X_5_1
  + 379 X_5_2 + 458 X_5_3 + 63 X_5_4 + 232 X_5_6 + 645 X_5_7 + 574 X_5_8 + 470 X_5_9 + 324 X_5_10
  + 628 X_5_11 + 522 X_5_12 + 58 X_5_13 + 629 X_5_14 + 475 X_6_0 + 536 X_6_1 + 463 X_6_2 + 234 X_6_3
  + 295 X_6_4 + 232 X_6_5 + 467 X_6_7 + 494 X_6_8 + 282 X_6_9 + 200 X_6_10 + 610 X_6_11 + 289 X_6_12
  + 286 X_6_13 + 488 X_6_14 + 487 X_7_0 + 977 X_7_1 + 580 X_7_2 + 450 X_7_3 + 693 X_7_4 + 645 X_7_5
  + 467 X_7_6 + 874 X_7_8 + 184 X_7_9 + 324 X_7_10 + 1028 X_7_11 + 353 X_7_12 + 703 X_7_13 + 120 X_7_14
  + 963 X_8_0 + 636 X_8_1 + 930 X_8_2 + 426 X_8_3 + 618 X_8_4 + 574 X_8_5 + 494 X_8_6 + 874 X_8_7
  + 711 X_8_9 + 691 X_8_10 + 178 X_8_11 + 535 X_8_12 + 584 X_8_13 + 937 X_8_14 + 425 X_9_0 + 799 X_9_1
  + 486 X_9_2 + 303 X_9_3 + 522 X_9_4 + 470 X_9_5 + 282 X_9_6 + 184 X_9_7 + 711 X_9_8 + 165 X_9_10
  + 856 X_9_11 + 237 X_9_12 + 528 X_9_13 + 225 X_9_14 + 310 X_10_0 + 656 X_10_1 + 341 X_10_2 + 349 X_10_3
  + 369 X_10_4 + 324 X_10_5 + 200 X_10_6 + 324 X_10_7 + 691 X_10_8 + 165 X_10_9 + 811 X_10_11 + 335 X_10_12
  + 381 X_10_13 + 308 X_10_14 + 1055 X_11_0 + 594 X_11_1 + 1004 X_11_2 + 588 X_11_3 + 658 X_11_4 + 628 X_11_5
  + 610 X_11_6 + 1028 X_11_7 + 178 X_11_8 + 856 X_11_9 + 811 X_11_10 + 701 X_11_12 + 621 X_11_13 + 1080 X_11_14
  + 640 X_12_0 + 812 X_12_1 + 676 X_12_2 + 114 X_12_3 + 584 X_12_4 + 522 X_12_5 + 289 X_12_6 + 353 X_12_7
  + 535 X_12_8 + 237 X_12_9 + 335 X_12_10 + 701 X_12_11 + 575 X_12_13 + 442 X_12_14 + 483 X_13_0 + 275 X_13_1
  + 402 X_13_2 + 506 X_13_3 + 36 X_13_4 + 58 X_13_5 + 286 X_13_6 + 703 X_13_7 + 584 X_13_8 + 528 X_13_9
  + 381 X_13_10 + 621 X_13_11 + 575 X_13_12 + 685 X_13_14 + 392 X_14_0 + 960 X_14_1 + 496 X_14_2 + 525 X_14_3
  + 669 X_14_4 + 629 X_14_5 + 488 X_14_6 + 120 X_14_7 + 937 X_14_8 + 225 X_14_9 + 308 X_14_10 + 1080 X_14_11
  + 442 X_14_12 + 685 X_14_13
  <= 1
 obj2:
  + 651 X_0_1 + 668 X_0_2 + 256 X_0_3 + 649 X_0_4 + 501 X_0_5 + 339 X_0_6 + 178 X_0_7 + 878 X_0_8
  + 290 X_0_9 + 244 X_0_10 + 704 X_0_11 + 132 X_0_12 + 336 X_0_13 + 709 X_0_14 + 651 X_1_0 + 678 X_1_2
  + 507 X_1_3 + 570 X_1_4 + 207 X_1_5 + 637 X_1_6 + 535 X_1_7 + 304 X_1_8 + 448 X_1_9 + 463 X_1_10
  + 221 X_1_11 + 643 X_1_12 + 331 X_1_13 + 678 X_1_14 + 668 X_2_0 + 678 X_2_1 + 784 X_2_3 + 1103 X_2_4
  + 495 X_2_5 + 936 X_2_6 + 734 X_2_7 + 978 X_2_8 + 762 X_2_9 + 727 X_2_10 + 883 X_2_11 + 777 X_2_12
  + 517 X_2_13 + 49 X_2_14 + 256 X_3_0 + 507 X_3_1 + 784 X_3_2 + 395 X_3_4 + 434 X_3_5 + 159 X_3_6
  + 78 X_3_7 + 670 X_3_8 + 59 X_3_9 + 60 X_3_10 + 491 X_3_11 + 165 X_3_12 + 296 X_3_13 + 815 X_3_14
  + 649 X_4_0 + 570 X_4_1 + 1103 X_4_2 + 395 X_4_3 + 641 X_4_5 + 351 X_4_6 + 474 X_4_7 + 526 X_4_8
  + 379 X_4_9 + 427 X_4_10 + 395 X_4_11 + 536 X_4_12 + 587 X_4_13 + 1124 X_4_14 + 501 X_5_0 + 207 X_5_1
  + 495 X_5_2 + 434 X_5_3 + 641 X_5_4 + 588 X_5_6 + 432 X_5_7 + 508 X_5_8 + 384 X_5_9 + 377 X_5_10
  + 390 X_5_11 + 528 X_5_12 + 165 X_5_13 + 503 X_5_14 + 339 X_6_0 + 637 X_6_1 + 936 X_6_2 + 159 X_6_3
  + 351 X_6_4 + 588 X_6_5 + 203 X_6_7 + 749 X_6_8 + 204 X_6_9 + 219 X_6_10 + 575 X_6_11 + 208 X_6_12
  + 455 X_6_13 + 969 X_6_14 + 178 X_7_0 + 535 X_7_1 + 734 X_7_2 + 78 X_7_3 + 474 X_7_4 + 432 X_7_5
  + 203 X_7_6 + 725 X_7_8 + 116 X_7_9 + 77 X_7_10 + 547 X_7_11 + 108 X_7_12 + 277 X_7_13 + 768 X_7_14
  + 878 X_8_0 + 304 X_8_1 + 978 X_8_2 + 670 X_8_3 + 526 X_8_4 + 508 X_8_5 + 749 X_8_6 + 725 X_8_7
  + 614 X_8_9 + 648 X_8_10 + 178 X_8_11 + 831 X_8_12 + 601 X_8_13 + 975 X_8_14 + 290 X_9_0 + 448 X_9_1
  + 762 X_9_2 + 59 X_9_3 + 379 X_9_4 + 384 X_9_5 + 204 X_9_6 + 116 X_9_7 + 614 X_9_8 + 48 X_9_10
  + 435 X_9_11 + 217 X_9_12 + 257 X_9_13 + 790 X_9_14 + 244 X_10_0 + 463 X_10_1 + 727 X_10_2 + 60 X_10_3
  + 427 X_10_4 + 377 X_10_5 + 219 X_10_6 + 77 X_10_7 + 648 X_10_8 + 48 X_10_9 + 470 X_10_11 + 184 X_10_12
  + 236 X_10_13 + 758 X_10_14 + 704 X_11_0 + 221 X_11_1 + 883 X_11_2 + 491 X_11_3 + 395 X_11_4 + 390 X_11_5
  + 575 X_11_6 + 547 X_11_7 + 178 X_11_8 + 435 X_11_9 + 470 X_11_10 + 652 X_11_12 + 448 X_11_13 + 888 X_11_14
  + 132 X_12_0 + 643 X_12_1 + 777 X_12_2 + 165 X_12_3 + 536 X_12_4 + 528 X_12_5 + 208 X_12_6 + 108 X_12_7
  + 831 X_12_8 + 217 X_12_9 + 184 X_12_10 + 652 X_12_11 + 367 X_12_13 + 815 X_12_14 + 336 X_13_0 + 331 X_13_1
  + 517 X_13_2 + 296 X_13_3 + 587 X_13_4 + 165 X_13_5 + 455 X_13_6 + 277 X_13_7 + 601 X_13_8 + 257 X_13_9
  + 236 X_13_10 + 448 X_13_11 + 367 X_13_12 + 540 X_13_14 + 709 X_14_0 + 678 X_14_1 + 49 X_14_2 + 815 X_14_3
  + 1124 X_14_4 + 503 X_14_5 + 969 X_14_6 + 768 X_14_7 + 975 X_14_8 + 790 X_14_9 + 758 X_14_10 + 888 X_14_11
  + 815 X_14_12 + 540 X_14_13
  <= 2
 obj3:
  + 489 X_0_1 + 144 X_0_2 + 117 X_0_3 + 617 X_0_4 + 294 X_0_5 + 443 X_0_6 + 450 X_0_7 + 194 X_0_8
  + 388 X_0_9 + 660 X_0_10 + 813 X_0_11 + 207 X_0_12 + 301 X_0_13 + 773 X_0_14 + 489 X_1_0 + 625 X_1_2
  + 500 X_1_3 + 891 X_1_4 + 213 X_1_5 + 263 X_1_6 + 659 X_1_7 + 548 X_1_8 + 382 X_1_9 + 768 X_1_10
  + 882 X_1_11 + 562 X_1_12 + 787 X_1_13 + 876 X_1_14 + 144 X_2_0 + 625 X_2_1 + 149 X_2_3 + 538 X_2_4
  + 420 X_2_5 + 539 X_2_6 + 420 X_2_7 + 271 X_2_8 + 520 X_2_9 + 638 X_2_10 + 791 X_2_11 + 278 X_2_12
  + 162 X_2_13 + 744 X_2_14 + 117 X_3_0 + 500 X_3_1 + 149 X_3_2 + 506 X_3_4 + 288 X_3_5 + 390 X_3_6
  + 332 X_3_7 + 312 X_3_8 + 483 X_3_9 + 542 X_3_10 + 696 X_3_11 + 325 X_3_12 + 303 X_3_13 + 655 X_3_14
  + 617 X_4_0 + 891 X_4_1 + 538 X_4_2 + 506 X_4_3 + 700 X_4_5 + 656 X_4_6 + 232 X_4_7 + 799 X_4_8
  + 986 X_4_9 + 270 X_4_10 + 368 X_4_11 + 809 X_4_12 + 542 X_4_13 + 306 X_4_14 + 294 X_5_0 + 213 X_5_1
  + 420 X_5_2 + 288 X_5_3 + 700 X_5_4 + 191 X_5_6 + 474 X_5_7 + 405 X_5_8 + 366 X_5_9 + 620 X_5_10
  + 754 X_5_11 + 421 X_5_12 + 582 X_5_13 + 735 X_5_14 + 443 X_6_0 + 263 X_6_1 + 539 X_6_2 + 390 X_6_3
  + 656 X_6_4 + 191 X_6_5 + 425 X_6_7 + 586 X_6_8 + 549 X_6_9 + 507 X_6_10 + 619 X_6_11 + 602 X_6_12
  + 692 X_6_13 + 613 X_6_14 + 450 X_7_0 + 659 X_7_1 + 420 X_7_2 + 332 X_7_3 + 232 X_7_4 + 474 X_7_5
  + 425 X_7_6 + 644 X_7_8 + 786 X_7_9 + 218 X_7_10 + 371 X_7_11 + 657 X_7_12 + 493 X_7_13 + 325 X_7_14
  + 194 X_8_0 + 548 X_8_1 + 271 X_8_2 + 312 X_8_3 + 799 X_8_4 + 405 X_8_5 + 586 X_8_6 + 644 X_8_7
  + 292 X_8_9 + 854 X_8_10 + 1007 X_8_11 + 16 X_8_12 + 372 X_8_13 + 968 X_8_14 + 388 X_9_0 + 382 X_9_1
  + 520 X_9_2 + 483 X_9_3 + 986 X_9_4 + 366 X_9_5 + 549 X_9_6 + 786 X_9_7 + 292 X_9_8 + 965 X_9_10
  + 1108 X_9_11 + 298 X_9_12 + 652 X_9_13 + 1082 X_9_14 + 660 X_10_0 + 768 X_10_1 + 638 X_10_2 + 542 X_10_3
  + 270 X_10_4 + 620 X_10_5 + 507 X_10_6 + 218 X_10_7 + 854 X_10_8 + 965 X_10_9 + 153 X_10_11 + 867 X_10_12
  + 705 X_10_13 + 116 X_10_14 + 813 X_11_0 + 882 X_11_1 + 791 X_11_2 + 696 X_11_3 + 368 X_11_4 + 754 X_11_5
  + 619 X_11_6 + 371 X_11_7 + 1007 X_11_8 + 1108 X_11_9 + 153 X_11_10 + 1021 X_11_12 + 852 X_11_13 + 62 X_11_14
  + 207 X_12_0 + 562 X_12_1 + 278 X_12_2 + 325 X_12_3 + 809 X_12_4 + 421 X_12_5 + 602 X_12_6 + 657 X_12_7
  + 16 X_12_8 + 298 X_12_9 + 867 X_12_10 + 1021 X_12_11 + 373 X_12_13 + 980 X_12_14 + 301 X_13_0 + 787 X_13_1
  + 162 X_13_2 + 303 X_13_3 + 542 X_13_4 + 582 X_13_5 + 692 X_13_6 + 493 X_13_7 + 372 X_13_8 + 652 X_13_9
  + 705 X_13_10 + 852 X_13_11 + 373 X_13_12 + 798 X_13_14 + 773 X_14_0 + 876 X_14_1 + 744 X_14_2 + 655 X_14_3
  + 306 X_14_4 + 735 X_14_5 + 613 X_14_6 + 325 X_14_7 + 968 X_14_8 + 1082 X_14_9 + 116 X_14_10 + 62 X_14_11
  + 980 X_14_12 + 798 X_14_13
  <= 3
 obj4:
  + 408 X_0_1 + 391 X_0_2 + 362 X_0_3 + 332 X_0_4 + 678 X_0_5 + 10 X_0_6 + 251 X_0_7 + 174 X_0_8
  + 396 X_0_9 + 373 X_0_10 + 314 X_0_11 + 233 X_0_12 + 416 X_0_13 + 566 X_0_14 + 408 X_1_0 + 495 X_1_2
  + 759 X_1_3 + 309 X_1_4 + 758 X_1_5 + 418 X_1_6 + 532 X_1_7 + 268 X_1_8 + 540 X_1_9 + 428 X_1_10
  + 454 X_1_11 + 641 X_1_12 + 127 X_1_13 + 457 X_1_14 + 391 X_2_0 + 495 X_2_1 + 505 X_2_3 + 641 X_2_4
  + 1056 X_2_5 + 390 X_2_6 + 642 X_2_7 + 304 X_2_8 + 776 X_2_9 + 724 X_2_10 + 687 X_2_11 + 498 X_2_12
  + 396 X_2_13 + 869 X_2_14 + 362 X_3_0 + 759 X_3_1 + 505 X_3_2 + 673 X_3_4 + 894 X_3_5 + 351 X_3_6
  + 456 X_3_7 + 496 X_3_8 + 640 X_3_9 + 674 X_3_10 + 595 X_3_11 + 160 X_3_12 + 738 X_3_13 + 891 X_3_14
  + 332 X_4_0 + 309 X_4_1 + 641 X_4_2 + 673 X_4_3 + 456 X_4_5 + 342 X_4_6 + 287 X_4_7 + 336 X_4_8
  + 234 X_4_9 + 118 X_4_10 + 160 X_4_11 + 519 X_4_12 + 413 X_4_13 + 236 X_4_14 + 678 X_5_0 + 758 X_5_1
  + 1056 X_5_2 + 894 X_5_3 + 456 X_5_4 + 684 X_5_6 + 452 X_5_7 + 762 X_5_8 + 282 X_5_9 + 344 X_5_10
  + 369 X_5_11 + 741 X_5_12 + 868 X_5_13 + 354 X_5_14 + 10 X_6_0 + 418 X_6_1 + 390 X_6_2 + 351 X_6_3
  + 342 X_6_4 + 684 X_6_5 + 252 X_6_7 + 181 X_6_8 + 401 X_6_9 + 381 X_6_10 + 321 X_6_11 + 223 X_6_12
  + 424 X_6_13 + 575 X_6_14 + 251 X_7_0 + 532 X_7_1 + 642 X_7_2 + 456 X_7_3 + 287 X_7_4 + 452 X_7_5
  + 252 X_7_6 + 391 X_7_8 + 184 X_7_9 + 236 X_7_10 + 151 X_7_11 + 297 X_7_12 + 591 X_7_13 + 456 X_7_14
  + 174 X_8_0 + 268 X_8_1 + 304 X_8_2 + 496 X_8_3 + 336 X_8_4 + 762 X_8_5 + 181 X_8_6 + 391 X_8_7
  + 489 X_8_9 + 423 X_8_10 + 396 X_8_11 + 394 X_8_12 + 247 X_8_13 + 566 X_8_14 + 396 X_9_0 + 540 X_9_1
  + 776 X_9_2 + 640 X_9_3 + 234 X_9_4 + 282 X_9_5 + 401 X_9_6 + 184 X_9_7 + 489 X_9_8 + 122 X_9_10
  + 94 X_9_11 + 481 X_9_12 + 632 X_9_13 + 306 X_9_14 + 373 X_10_0 + 428 X_10_1 + 724 X_10_2 + 674 X_10_3
  + 118 X_10_4 + 344 X_10_5 + 381 X_10_6 + 236 X_10_7 + 423 X_10_8 + 122 X_10_9 + 84 X_10_11 + 515 X_10_12
  + 530 X_10_13 + 220 X_10_14 + 314 X_11_0 + 454 X_11_1 + 687 X_11_2 + 595 X_11_3 + 160 X_11_4 + 369 X_11_5
  + 321 X_11_6 + 151 X_11_7 + 396 X_11_8 + 94 X_11_9 + 84 X_11_10 + 435 X_11_12 + 541 X_11_13 + 305 X_11_14
  + 233 X_12_0 + 641 X_12_1 + 498 X_12_2 + 160 X_12_3 + 519 X_12_4 + 741 X_12_5 + 223 X_12_6 + 297 X_12_7
  + 394 X_12_8 + 481 X_12_9 + 515 X_12_10 + 435 X_12_11 + 642 X_12_13 + 732 X_12_14 + 416 X_13_0 + 127 X_13_1
  + 396 X_13_2 + 738 X_13_3 + 413 X_13_4 + 868 X_13_5 + 424 X_13_6 + 591 X_13_7 + 247 X_13_8 + 632 X_13_9
  + 530 X_13_10 + 541 X_13_11 + 642 X_13_12 + 582 X_13_14 + 566 X_14_0 + 457 X_14_1 + 869 X_14_2 + 891 X_14_3
  + 236 X_14_4 + 354 X_14_5 + 575 X_14_6 + 456 X_14_7 + 566 X_14_8 + 306 X_14_9 + 220 X_14_10 + 305 X_14_11
  + 732 X_14_12 + 582 X_14_13
  <= 4
 obj5:
  + 339 X_0_1 + 721 X_0_2 + 450 X_0_3 + 41 X_0_4 + 545 X_0_5 + 529 X_0_6 + 508 X_0_7 + 473 X_0_8
  + 492 X_0_9 + 410 X_0_10 + 367 X_0_11 + 94 X_0_12 + 240 X_0_13 + 173 X_0_14 + 339 X_1_0 + 547 X_1_2
  + 610 X_1_3 + 366 X_1_4 + 713 X_1_5 + 233 X_1_6 + 294 X_1_7 + 233 X_1_8 + 636 X_1_9 + 140 X_1_10
  + 607 X_1_11 + 381 X_1_12 + 519 X_1_13 + 510 X_1_14 + 721 X_2_0 + 547 X_2_1 + 583 X_2_3 + 763 X_2_4
  + 637 X_2_5 + 690 X_2_6 + 252 X_2_7 + 747 X_2_8 + 567 X_2_9 + 406 X_2_10 + 701 X_2_11 + 683 X_2_12
  + 718 X_2_13 + 831 X_2_14 + 450 X_3_0 + 610 X_3_1 + 583 X_3_2 + 478 X_3_4 + 103 X_3_5 + 844 X_3_6
  + 528 X_3_7 + 830 X_3_8 + 46 X_3_9 + 564 X_3_10 + 152 X_3_11 + 357 X_3_12 + 256 X_3_13 + 425 X_3_14
  + 41 X_4_0 + 366 X_4_1 + 763 X_4_2 + 478 X_4_3 + 571 X_4_5 + 545 X_4_6 + 548 X_4_7 + 483 X_4_8
  + 521 X_4_9 + 446 X_4_10 + 385 X_4_11 + 121 X_4_12 + 254 X_4_13 + 156 X_4_14 + 545 X_5_0 + 713 X_5_1
  + 637 X_5_2 + 103 X_5_3 + 571 X_5_4 + 946 X_5_6 + 614 X_5_7 + 933 X_5_8 + 81 X_5_9 + 661 X_5_10
  + 207 X_5_11 + 451 X_5_12 + 332 X_5_13 + 500 X_5_14 + 529 X_6_0 + 233 X_6_1 + 690 X_6_2 + 844 X_6_3
  + 545 X_6_4 + 946 X_6_5 + 456 X_6_7 + 99 X_6_8 + 869 X_6_9 + 319 X_6_10 + 836 X_6_11 + 592 X_6_12
  + 739 X_6_13 + 701 X_6_14 + 508 X_7_0 + 294 X_7_1 + 252 X_7_2 + 528 X_7_3 + 548 X_7_4 + 614 X_7_5
  + 456 X_7_6 + 502 X_7_8 + 533 X_7_9 + 155 X_7_10 + 599 X_7_11 + 493 X_7_12 + 571 X_7_13 + 646 X_7_14
  + 473 X_8_0 + 233 X_8_1 + 747 X_8_2 + 830 X_8_3 + 483 X_8_4 + 933 X_8_5 + 99 X_8_6 + 502 X_8_7
  + 860 X_8_9 + 352 X_8_10 + 805 X_8_11 + 546 X_8_12 + 697 X_8_13 + 639 X_8_14 + 492 X_9_0 + 636 X_9_1
  + 567 X_9_2 + 46 X_9_3 + 521 X_9_4 + 81 X_9_5 + 869 X_9_6 + 533 X_9_7 + 860 X_9_8 + 580 X_9_10
  + 195 X_9_11 + 400 X_9_12 + 302 X_9_13 + 471 X_9_14 + 410 X_10_0 + 140 X_10_1 + 406 X_10_2 + 564 X_10_3
  + 446 X_10_4 + 661 X_10_5 + 319 X_10_6 + 155 X_10_7 + 352 X_10_8 + 580 X_10_9 + 596 X_10_11 + 422 X_10_12
  + 535 X_10_13 + 569 X_10_14 + 367 X_11_0 + 607 X_11_1 + 701 X_11_2 + 152 X_11_3 + 385 X_11_4 + 207 X_11_5
  + 836 X_11_6 + 599 X_11_7 + 805 X_11_8 + 195 X_11_9 + 596 X_11_10 + 274 X_11_12 + 132 X_11_13 + 295 X_11_14
  + 94 X_12_0 + 381 X_12_1 + 683 X_12_2 + 357 X_12_3 + 121 X_12_4 + 451 X_12_5 + 592 X_12_6 + 493 X_12_7
  + 546 X_12_8 + 400 X_12_9 + 422 X_12_10 + 274 X_12_11 + 152 X_12_13 + 152 X_12_14 + 240 X_13_0 + 519 X_13_1
  + 718 X_13_2 + 256 X_13_3 + 254 X_13_4 + 332 X_13_5 + 739 X_13_6 + 571 X_13_7 + 697 X_13_8 + 302 X_13_9
  + 535 X_13_10 + 132 X_13_11 + 152 X_13_12 + 169 X_13_14 + 173 X_14_0 + 510 X_14_1 + 831 X_14_2 + 425 X_14_3
  + 156 X_14_4 + 500 X_14_5 + 701 X_14_6 + 646 X_14_7 + 639 X_14_8 + 471 X_14_9 + 569 X_14_10 + 295 X_14_11
  + 152 X_14_12 + 169 X_14_13
  <= 5
Bounds
 1 <= U1 <= 14
 1 <= U2 <= 14
 1 <= U3 <= 14
 1 <= U4 <= 14
 1 <= U5 <= 14
 1 <= U6 <= 14
 1 <= U7 <= 14
 1 <= U8 <= 14
 1 <= U9 <= 14
 1 <= U10 <= 14
 1 <= U11 <= 14
 1 <= U12 <= 14
 1 <= U13 <= 14
 1 <= U14 <= 14
Binary
 X_0_1
 X_0_2
 X_0_3
 X_0_4
 X_0_5
 X_0_6
 X_0_7
 X_0_8
 X_0_9
 X_0_10
 X_0_11
 X_0_12
 X_0_13
 X_0_14
 X_1_0
 X_1_2
 X_1_3
 X_1_4
 X_1_5
 X_1_6
 X_1_7
 X_1_8
 X_1_9
 X_1_10
 X_1_11
 X_1_12
 X_1_13
 X_1_14
 X_2_0
 X_2_1
 X_2_3
 X_2_4
 X_2_5
 X_2_6
 X_2_7
 X_2_8
 X_2_9
 X_2_10
 X_2_11
 X_2_12
 X_2_13
 X_2_14
 X_3_0
 X_3_1
 X_3_2
 X_3_4
 X_3_5
 X_3_6
 X_3_7
 X_3_8
 X_3_9
 X_3_10
 X_3_11
 X_3_12
 X_3_13
 X_3_14
 X_4_0
 X_4_1
 X_4_2
 X_4_3
 X_4_5
 X_4_6
 X_4_7
 X_4_8
 X_4_9
 X_4_10
 X_4_11
 X_4_12
 X_4_13
 X_4_14
 X_5_0
 X_5_1
 X_5_2
 X_5_3
 X_5_4
 X_5_6
 X_5_7
 X_5_8
 X_5_9
 X_5_10
 X_5_11
 X_5_12
 X_5_13
 X_5_14
 X_6_0
 X_6_1
 X_6_2
 X_6_3
 X_6_4
 X_6_5
 X_6_7
 X_6_8
 X_6_9
 X_6_10
 X_6_11
 X_6_12
 X_6_13
 X_6_14
 X_7_0
 X_7_1
 X_7_2
 X_7_3
 X_7_4
 X_7_5
 X_7_6
 X_7_8
 X_7_9
 X_7_10
 X_7_11
 X_7_12
 X_7_13
 X_7_14
 X_8_0
 X_8_1
 X_8_2
 X_8_3
 X_8_4
 X_8_5
 X_8_6
 X_8_7
 X_8_9
 X_8_10
 X_8_11
 X_8_12
 X_8_13
 X_8_14
 X_9_0
 X_9_1
 X_9_2
 X_9_3
 X_9_4
 X_9_5
 X_9_6
 X_9_7
 X_9_8
 X_9_10
 X_9_11
 X_9_12
 X_9_13
 X_9_14
 X_10_0
 X_10_1
 X_10_2
 X_10_3
 X_10_4
 X_10_5
 X_10_6
 X_10_7
 X_10_8
 X_10_9
 X_10_11
 X_10_12
 X_10_13
 X_10_14
 X_11_0
 X_11_1
 X_11_2
 X_11_3
 X_11_4
 X_11_5
 X_11_6
 X_11_7
 X_11_8
 X_11_9
 X_11_10
 X_11_12
 X_11_13
 X_11_14
 X_12_0
 X_12_1
 X_12_2
 X_12_3
 X_12_4
 X_12_5
 X_12_6
 X_12_7
 X_12_8
 X_12_9
 X_12_10
 X_12_11
 X_12_13
 X_12_14
 X_13_0
 X_13_1
 X_13_2
 X_13_3
 X_13_4
 X_13_5
 X_13_6
 X_13_7
 X_13_8
 X_13_9
 X_13_10
 X_13_11
 X_13_12
 X_13_14
 X_14_0
 X_14_1
 X_14_2
 X_14_3
 X_14_4
 X_14_5
 X_14_6
 X_14_7
 X_14_8
 X_14_9
 X_14_10
 X_14_11
 X_14_12
 X_14_13
End
